solution status: optimal solution found
objective value:                     221985.291000001
d11(0,0)                                            1 	(obj:0)
d11(1,1)                                            1 	(obj:0)
d11(2,3)                                            1 	(obj:0)
d11(2,4)                            0.999999999999998 	(obj:0)
d11(2,5)                                            1 	(obj:0)
d11(3,7)                                            1 	(obj:0)
d11(3,8)                                            1 	(obj:0)
d11(3,9)                                            1 	(obj:0)
d11(3,10)                                           1 	(obj:0)
d11(3,11)                                           1 	(obj:0)
d11(3,13)                                           1 	(obj:0)
d11(3,14)                                           1 	(obj:0)
d11(4,15)                                           1 	(obj:0)
d11(4,16)                                           1 	(obj:0)
d11(4,17)                                           1 	(obj:0)
d11(4,18)                                           1 	(obj:0)
d11(4,19)                                           1 	(obj:0)
d11(4,20)                                           1 	(obj:0)
d11(4,21)                                           1 	(obj:0)
d11(4,22)                                           1 	(obj:0)
d11(4,23)                                           1 	(obj:0)
d11(4,24)                                           1 	(obj:0)
d11(4,25)                                           1 	(obj:0)
d11(4,26)                                           1 	(obj:0)
d11(4,27)                                           1 	(obj:0)
d11(4,28)                                           1 	(obj:0)
d11(4,29)                                           1 	(obj:0)
d11(4,30)                                           1 	(obj:0)
d11(5,31)                                           1 	(obj:0)
d11(5,32)                                           1 	(obj:0)
d11(5,33)                                           1 	(obj:0)
d11(5,34)                                           1 	(obj:0)
d11(5,35)                                           1 	(obj:0)
d11(5,37)                                           1 	(obj:0)
d11(5,38)                                           1 	(obj:0)
d11(5,39)                                           1 	(obj:0)
d11(5,40)                           0.999999999999998 	(obj:0)
d11(5,41)                                           1 	(obj:0)
d11(5,42)                                           1 	(obj:0)
d11(5,43)                                           1 	(obj:0)
d11(5,44)                           0.999999999999998 	(obj:0)
d11(5,45)                                           1 	(obj:0)
d11(5,46)                           0.999999999999997 	(obj:0)
d11(5,47)                                           1 	(obj:0)
d11(5,48)                                           1 	(obj:0)
d11(5,49)                                           1 	(obj:0)
d11(5,50)                                           1 	(obj:0)
d11(5,51)                                           1 	(obj:0)
d11(5,52)                                           1 	(obj:0)
d11(5,53)                                           1 	(obj:0)
d11(5,54)                           0.999999999999997 	(obj:0)
d11(5,55)                                           1 	(obj:0)
d11(5,56)                           0.999999999999997 	(obj:0)
d11(5,57)                                           1 	(obj:0)
d11(5,58)                           0.999999999999997 	(obj:0)
d11(5,59)                                           1 	(obj:0)
d11(5,60)                           0.999999999999997 	(obj:0)
d11(5,61)                                           1 	(obj:0)
d11(5,62)                           0.999999999999997 	(obj:0)
d12(1,2)                                            1 	(obj:0)
d21(4,15)                                           1 	(obj:0)
d21(5,31)                                           1 	(obj:0)
d21(5,32)                                           1 	(obj:0)
d21(5,33)                                           1 	(obj:0)
d21(5,34)                                           1 	(obj:0)
d21(5,35)                                           1 	(obj:0)
d21(5,37)                                           1 	(obj:0)
d21(5,39)                                           1 	(obj:0)
d21(5,41)                                           1 	(obj:0)
d21(5,43)                                           1 	(obj:0)
d21(5,47)                                           1 	(obj:0)
d21(5,48)                                           1 	(obj:0)
d21(5,49)                                           1 	(obj:0)
d21(5,51)                                           1 	(obj:0)
d21(5,55)                                           1 	(obj:0)
STE(1,1)                                        11592 	(obj:0)
STE(0,0)                                        12600 	(obj:0)
STE(1,2)                             12908.2140858765 	(obj:0)
STE(2,3)                             8925.75010111116 	(obj:0)
STE(2,4)                                        10584 	(obj:0)
STE(2,5)                             10241.9641869876 	(obj:0)
STE(2,6)                             11900.2140858765 	(obj:0)
STE(3,7)                             6259.50020222234 	(obj:0)
STE(3,8)                             7917.75010111116 	(obj:0)
STE(3,9)                             7917.75010111118 	(obj:0)
STE(3,10)                                        9576 	(obj:0)
STE(3,11)                            7575.71428809879 	(obj:0)
STE(3,12)                            9233.96418698763 	(obj:0)
STE(3,13)                            9233.96418698763 	(obj:0)
STE(3,14)                            10892.2140858765 	(obj:0)
STE(4,15)                             609.75010111118 	(obj:0)
STE(4,16)                                        2268 	(obj:0)
STE(4,17)                                        2268 	(obj:0)
STE(4,18)                            3926.24989888881 	(obj:0)
STE(4,19)                            2268.00000000002 	(obj:0)
STE(4,20)                            3926.24989888884 	(obj:0)
STE(4,21)                            3926.24989888884 	(obj:0)
STE(4,22)                            5584.49979777766 	(obj:0)
STE(4,23)                            1925.96418698763 	(obj:0)
STE(4,24)                            3584.21408587645 	(obj:0)
STE(4,25)                            3584.21408587647 	(obj:0)
STE(4,26)                            5242.46398476529 	(obj:0)
STE(4,27)                            3584.21408587647 	(obj:0)
STE(4,28)                            5242.46398476529 	(obj:0)
STE(4,29)                            5242.46398476529 	(obj:0)
STE(4,30)                            6900.71388365411 	(obj:0)
STE(5,31)                           -2056.49979777767 	(obj:0)
STE(5,32)                           -398.249898888847 	(obj:0)
STE(5,33)                           -398.249898888849 	(obj:0)
STE(5,34)                            1259.99999999997 	(obj:0)
STE(5,35)                           -398.249898888846 	(obj:0)
STE(5,36)                                        1260 	(obj:0)
STE(5,37)                            1259.99999999997 	(obj:0)
STE(5,38)                            2918.24989888881 	(obj:0)
STE(5,39)                           -398.249898888822 	(obj:0)
STE(5,40)                            1260.00000000002 	(obj:0)
STE(5,41)                            1259.99999999999 	(obj:0)
STE(5,42)                            2918.24989888884 	(obj:0)
STE(5,43)                            1259.99999999999 	(obj:0)
STE(5,44)                            2918.24989888884 	(obj:0)
STE(5,45)                            2918.24989888881 	(obj:0)
STE(5,46)                            4576.49979777766 	(obj:0)
STE(5,47)                           -740.285711901217 	(obj:0)
STE(5,48)                            917.964186987601 	(obj:0)
STE(5,49)                            917.964186987601 	(obj:0)
STE(5,50)                            2576.21408587645 	(obj:0)
STE(5,51)                            917.964186987626 	(obj:0)
STE(5,52)                            2576.21408587647 	(obj:0)
STE(5,53)                            2576.21408587644 	(obj:0)
STE(5,54)                            4234.46398476529 	(obj:0)
STE(5,55)                            917.964186987627 	(obj:0)
STE(5,56)                            2576.21408587647 	(obj:0)
STE(5,57)                            2576.21408587644 	(obj:0)
STE(5,58)                            4234.46398476529 	(obj:0)
STE(5,59)                            2576.21408587644 	(obj:0)
STE(5,60)                            4234.46398476529 	(obj:0)
STE(5,61)                            4234.46398476526 	(obj:0)
STE(5,62)                            5892.71388365411 	(obj:0)
y1(5,39)                             1492.42490899996 	(obj:0)
y1(5,41)                             1492.42490899996 	(obj:0)
y1(5,43)                             1492.42490899996 	(obj:0)
y1(5,45)                             1492.42490899996 	(obj:0)
y1(5,47)                             1492.42490899996 	(obj:0)
y1(5,49)                             1492.42490899996 	(obj:0)
y1(5,51)                             1492.42490899996 	(obj:0)
y1(5,53)                             1492.42490899996 	(obj:0)
y1(5,55)                             1492.42490899996 	(obj:0)
y1(5,57)                             1492.42490899996 	(obj:0)
y1(5,59)                             1492.42490899996 	(obj:0)
y1(5,61)                             1492.42490899996 	(obj:0)
WB(1)                                543.501764824447 	(obj:0)
AVE(1)                                   3216.9117036 	(obj:0)
AVE(2)                                   3366.1541945 	(obj:0)
AVE(3)                                   3515.3966854 	(obj:0)
AVE(4)                               3515.39406545826 	(obj:0)
AVE(5)                               3167.15385943327 	(obj:0)
WG(1)                                2673.40993877555 	(obj:10)
WG(2)                                    3366.1541945 	(obj:10)
WG(3)                                    3515.3966854 	(obj:10)
WG(4)                                3515.39406545826 	(obj:10)
WG(5)                                3167.15385943327 	(obj:10)
BG(2)                                830.138304479591 	(obj:10)
BG(3)                                680.895813579565 	(obj:10)
BG(4)                                3420.84759882754 	(obj:10)
BG(5)                                1029.13863954632 	(obj:10)
y1(2,3)                              1492.42490899996 	(obj:0)
y1(2,5)                              1492.42490899996 	(obj:0)
y1(3,7)                              1492.42490899994 	(obj:0)
y1(3,9)                              1492.42490899994 	(obj:0)
y1(3,11)                             1492.42490899994 	(obj:0)
y1(3,13)                             1492.42490899994 	(obj:0)
y1(4,15)                             4177.57509100004 	(obj:0)
y1(4,16)                             2685.15018200011 	(obj:0)
y1(4,17)                             4177.57509100004 	(obj:0)
y1(4,18)                             2685.15018200011 	(obj:0)
y1(4,19)                             4177.57509100004 	(obj:0)
y1(4,20)                             2685.15018200011 	(obj:0)
y1(4,21)                             4177.57509100004 	(obj:0)
y1(4,22)                             2685.15018200011 	(obj:0)
y1(4,23)                             4177.57509100004 	(obj:0)
y1(4,24)                             2685.15018200011 	(obj:0)
y1(4,25)                             4177.57509100004 	(obj:0)
y1(4,26)                             2685.15018200011 	(obj:0)
y1(4,27)                             4177.57509100004 	(obj:0)
y1(4,28)                             2685.15018200011 	(obj:0)
y1(4,29)                             4177.57509100004 	(obj:0)
y1(4,30)                             2685.15018200011 	(obj:0)
y1(5,31)                             1492.42490899996 	(obj:0)
y1(5,33)                             1492.42490899996 	(obj:0)
y1(5,35)                             1492.42490899996 	(obj:0)
y1(5,37)                             1492.42490899996 	(obj:0)
y2(1,2)                               1385.4885114489 	(obj:0)
